
Gurobi 11.0.3 (linux64) logging started Sun Nov 24 23:57:48 2024

Set parameter LogFile to value "/home/yihong/Coding/OR_SUC/SUC_results_bigM100000_thread4/case24_ieee_rts_theta0.5_epsilon0.025_gurobi_seed1210000_num_gen100_N_WDR100_load_scaling_factor1_proposed_T8quadra_cost.txt"
Set parameter TimeLimit to value 3600
Gurobi Optimizer version 11.0.3 build v11.0.3rc0 (linux64 - "Ubuntu 20.04.6 LTS")

CPU model: AMD EPYC 7532 32-Core Processor, instruction set [SSE2|AVX|AVX2]
Thread count: 64 physical cores, 128 logical processors, using up to 4 threads

Optimize a model with 16982 rows, 10021 columns and 235066 nonzeros
Model fingerprint: 0xc464a777
Model has 800 quadratic constraints
Variable types: 9221 continuous, 800 integer (800 binary)
Coefficient statistics:
  Matrix range     [3e-04, 2e+03]
  QMatrix range    [2e-03, 8e-03]
  QLMatrix range   [4e-02, 6e+01]
  Objective range  [1e+00, 1e+00]
  Bounds range     [1e+00, 1e+00]
  RHS range        [1e+00, 9e+03]
Presolve removed 13888 rows and 4491 columns
Presolve time: 0.07s
Presolved: 3094 rows, 5530 columns, 21843 nonzeros
Presolved model has 800 quadratic constraint(s)
Variable types: 4730 continuous, 800 integer (800 binary)

Root relaxation: objective 2.469119e+04, 2331 iterations, 0.03 seconds (0.04 work units)

    Nodes    |    Current Node    |     Objective Bounds      |     Work
 Expl Unexpl |  Obj  Depth IntInf | Incumbent    BestBd   Gap | It/Node Time

     0     0 24691.1896    0    -          - 24691.1896      -     -    0s
     0     0 184449.691    0  176          - 184449.691      -     -    0s
     0     0 272992.504    0   76          - 272992.504      -     -    0s
     0     0 272994.310    0   77          - 272994.310      -     -    0s
     0     0 273033.449    0   21          - 273033.449      -     -    0s
     0     0 273034.435    0   21          - 273034.435      -     -    0s
     0     0 273034.435    0   21          - 273034.435      -     -    0s
     0     0 273035.289    0   21          - 273035.289      -     -    0s
     0     2 273035.289    0   21          - 273035.289      -     -    0s
H  150   162                    274474.63496 273036.248  0.52%  16.9    1s
*  150   162              48    274474.63496 273036.248  0.52%  16.9    1s
H  237   246                    273078.53964 273042.235  0.01%  17.7    1s
*  237   246              15    273078.53964 273044.309  0.01%  17.8    1s

Cutting planes:
  Gomory: 87
  Lift-and-project: 2
  Implied bound: 166
  MIR: 84
  Flow cover: 176
  RLT: 90

Explored 283 nodes (11465 simplex iterations) in 1.79 seconds (2.21 work units)
Thread count was 4 (of 128 available processors)

Solution count 3: 273079 273079 274475 

Optimal solution found (tolerance 1.00e-03)
Warning: max constraint violation (1.8807e-07) exceeds tolerance
Best objective 2.730785396353e+05, best bound 2.730443092294e+05, gap 0.0125%
